57598.0
1778
0 1 2 3 4 5 6 7 9 12 15 16 18 19 21 22 23 26 28 29 32 33 34 38 41 42 43 44 45 46 47 48 49 50 51 52 53 54 57 61 62 63 64 65 66 67 69 70 71 72 74 76 77 78 79 80 82 83 84 85 87 88 89 91 92 93 94 96 